<instance format="XCSP3" type="COP">
  <variables>
    <array id="s" note="Start time of operation j for job i" size="[10][10]"> 0..751 </array>
    <array id="e" note="End time of last operation of job i" size="[10]"> 0..751 </array>
    <array id="d" note="Duration of operation j for job i" size="[10][10]">
      <domain for="d[0][]"> 2 47 48 51 52 67..69 83 96 </domain>
      <domain for="d[1][]"> 12 16 22 26 29 57 60 86 92 96 </domain>
      <domain for="d[2][]"> 6 24 38 64 65 70 86 87 90 96 </domain>
      <domain for="d[3][]"> 17 31 37 62 66 67 69 71 89 91 </domain>
      <domain for="d[4][]"> 8 12 20 29 46 52 56 72 </domain>
      <domain for="d[5][]"> 11 37 46 55 60 62 67 83 86 97 </domain>
      <domain for="d[6][]"> 25 33 40 42 44 53 85 93 95 </domain>
      <domain for="d[7][]"> 3 18 29 49 55 67 80 86 93 97 </domain>
      <domain for="d[8][]"> 6 18 28 38 39 53 72 94 97 </domain>
      <domain for="d[9][]"> 31 34 41 50 73 82..84 95 </domain>
    </array>
    <array id="w" note="Which machine for operation j of job i" size="[10][10]"> 0..9 </array>
    <array id="sd" note="Start (dual) time of job i, machine k" size="[10][10]"> 0..751 </array>
  </variables>
  <constraints>
    <group>
      <intension> eq(%0,add(%1,%2)) </intension>
      <args> e[0] s[0][9] d[0][9] </args>
      <args> e[1] s[1][9] d[1][9] </args>
      <args> e[2] s[2][9] d[2][9] </args>
      <args> e[3] s[3][9] d[3][9] </args>
      <args> e[4] s[4][9] d[4][9] </args>
      <args> e[5] s[5][9] d[5][9] </args>
      <args> e[6] s[6][9] d[6][9] </args>
      <args> e[7] s[7][9] d[7][9] </args>
      <args> e[8] s[8][9] d[8][9] </args>
      <args> e[9] s[9][9] d[9][9] </args>
    </group>
    <group>
      <allDifferent> %... </allDifferent>
      <args> w[0][] </args>
      <args> w[1][] </args>
      <args> w[2][] </args>
      <args> w[3][] </args>
      <args> w[4][] </args>
      <args> w[5][] </args>
      <args> w[6][] </args>
      <args> w[7][] </args>
      <args> w[8][] </args>
      <args> w[9][] </args>
    </group>
    <block>
      <group>
        <extension>
          <list> %0 %1 </list>
          <supports> (0,48)(1,2)(2,96)(3,67)(4,68)(5,47)(6,52)(7,83)(8,69)(9,51) </supports>
        </extension>
        <args> w[0][0] d[0][0] </args>
        <args> w[0][1] d[0][1] </args>
        <args> w[0][2] d[0][2] </args>
        <args> w[0][3] d[0][3] </args>
        <args> w[0][4] d[0][4] </args>
        <args> w[0][5] d[0][5] </args>
        <args> w[0][6] d[0][6] </args>
        <args> w[0][7] d[0][7] </args>
        <args> w[0][8] d[0][8] </args>
        <args> w[0][9] d[0][9] </args>
      </group>
      <group>
        <extension>
          <list> %0 %1 </list>
          <supports> (0,86)(1,29)(2,96)(3,16)(4,60)(5,57)(6,22)(7,12)(8,92)(9,26) </supports>
        </extension>
        <args> w[1][0] d[1][0] </args>
        <args> w[1][1] d[1][1] </args>
        <args> w[1][2] d[1][2] </args>
        <args> w[1][3] d[1][3] </args>
        <args> w[1][4] d[1][4] </args>
        <args> w[1][5] d[1][5] </args>
        <args> w[1][6] d[1][6] </args>
        <args> w[1][7] d[1][7] </args>
        <args> w[1][8] d[1][8] </args>
        <args> w[1][9] d[1][9] </args>
      </group>
      <group>
        <extension>
          <list> %0 %1 </list>
          <supports> (0,24)(1,87)(2,70)(3,6)(4,65)(5,86)(6,96)(7,64)(8,38)(9,90) </supports>
        </extension>
        <args> w[2][0] d[2][0] </args>
        <args> w[2][1] d[2][1] </args>
        <args> w[2][2] d[2][2] </args>
        <args> w[2][3] d[2][3] </args>
        <args> w[2][4] d[2][4] </args>
        <args> w[2][5] d[2][5] </args>
        <args> w[2][6] d[2][6] </args>
        <args> w[2][7] d[2][7] </args>
        <args> w[2][8] d[2][8] </args>
        <args> w[2][9] d[2][9] </args>
      </group>
      <group>
        <extension>
          <list> %0 %1 </list>
          <supports> (0,31)(1,89)(2,62)(3,67)(4,37)(5,69)(6,66)(7,91)(8,71)(9,17) </supports>
        </extension>
        <args> w[3][0] d[3][0] </args>
        <args> w[3][1] d[3][1] </args>
        <args> w[3][2] d[3][2] </args>
        <args> w[3][3] d[3][3] </args>
        <args> w[3][4] d[3][4] </args>
        <args> w[3][5] d[3][5] </args>
        <args> w[3][6] d[3][6] </args>
        <args> w[3][7] d[3][7] </args>
        <args> w[3][8] d[3][8] </args>
        <args> w[3][9] d[3][9] </args>
      </group>
      <group>
        <extension>
          <list> %0 %1 </list>
          <supports> (0,56)(1,29)(2,72)(3,20)(4,46)(5,12)(6,52)(7,46)(8,8)(9,12) </supports>
        </extension>
        <args> w[4][0] d[4][0] </args>
        <args> w[4][1] d[4][1] </args>
        <args> w[4][2] d[4][2] </args>
        <args> w[4][3] d[4][3] </args>
        <args> w[4][4] d[4][4] </args>
        <args> w[4][5] d[4][5] </args>
        <args> w[4][6] d[4][6] </args>
        <args> w[4][7] d[4][7] </args>
        <args> w[4][8] d[4][8] </args>
        <args> w[4][9] d[4][9] </args>
      </group>
      <group>
        <extension>
          <list> %0 %1 </list>
          <supports> (0,11)(1,97)(2,62)(3,46)(4,83)(5,55)(6,67)(7,37)(8,86)(9,60) </supports>
        </extension>
        <args> w[5][0] d[5][0] </args>
        <args> w[5][1] d[5][1] </args>
        <args> w[5][2] d[5][2] </args>
        <args> w[5][3] d[5][3] </args>
        <args> w[5][4] d[5][4] </args>
        <args> w[5][5] d[5][5] </args>
        <args> w[5][6] d[5][6] </args>
        <args> w[5][7] d[5][7] </args>
        <args> w[5][8] d[5][8] </args>
        <args> w[5][9] d[5][9] </args>
      </group>
      <group>
        <extension>
          <list> %0 %1 </list>
          <supports> (0,53)(1,44)(2,44)(3,93)(4,40)(5,33)(6,42)(7,85)(8,95)(9,25) </supports>
        </extension>
        <args> w[6][0] d[6][0] </args>
        <args> w[6][1] d[6][1] </args>
        <args> w[6][2] d[6][2] </args>
        <args> w[6][3] d[6][3] </args>
        <args> w[6][4] d[6][4] </args>
        <args> w[6][5] d[6][5] </args>
        <args> w[6][6] d[6][6] </args>
        <args> w[6][7] d[6][7] </args>
        <args> w[6][8] d[6][8] </args>
        <args> w[6][9] d[6][9] </args>
      </group>
      <group>
        <extension>
          <list> %0 %1 </list>
          <supports> (0,49)(1,86)(2,55)(3,93)(4,80)(5,29)(6,97)(7,67)(8,3)(9,18) </supports>
        </extension>
        <args> w[7][0] d[7][0] </args>
        <args> w[7][1] d[7][1] </args>
        <args> w[7][2] d[7][2] </args>
        <args> w[7][3] d[7][3] </args>
        <args> w[7][4] d[7][4] </args>
        <args> w[7][5] d[7][5] </args>
        <args> w[7][6] d[7][6] </args>
        <args> w[7][7] d[7][7] </args>
        <args> w[7][8] d[7][8] </args>
        <args> w[7][9] d[7][9] </args>
      </group>
      <group>
        <extension>
          <list> %0 %1 </list>
          <supports> (0,38)(1,28)(2,39)(3,97)(4,53)(5,94)(6,38)(7,18)(8,6)(9,72) </supports>
        </extension>
        <args> w[8][0] d[8][0] </args>
        <args> w[8][1] d[8][1] </args>
        <args> w[8][2] d[8][2] </args>
        <args> w[8][3] d[8][3] </args>
        <args> w[8][4] d[8][4] </args>
        <args> w[8][5] d[8][5] </args>
        <args> w[8][6] d[8][6] </args>
        <args> w[8][7] d[8][7] </args>
        <args> w[8][8] d[8][8] </args>
        <args> w[8][9] d[8][9] </args>
      </group>
      <group>
        <extension>
          <list> %0 %1 </list>
          <supports> (0,31)(1,50)(2,41)(3,84)(4,82)(5,83)(6,73)(7,34)(8,95)(9,34) </supports>
        </extension>
        <args> w[9][0] d[9][0] </args>
        <args> w[9][1] d[9][1] </args>
        <args> w[9][2] d[9][2] </args>
        <args> w[9][3] d[9][3] </args>
        <args> w[9][4] d[9][4] </args>
        <args> w[9][5] d[9][5] </args>
        <args> w[9][6] d[9][6] </args>
        <args> w[9][7] d[9][7] </args>
        <args> w[9][8] d[9][8] </args>
        <args> w[9][9] d[9][9] </args>
      </group>
    </block>
    <group>
      <intension> le(add(%0,%1),%2) </intension>
      <args> s[0][0] d[0][0] s[0][1] </args>
      <args> s[0][1] d[0][1] s[0][2] </args>
      <args> s[0][2] d[0][2] s[0][3] </args>
      <args> s[0][3] d[0][3] s[0][4] </args>
      <args> s[0][4] d[0][4] s[0][5] </args>
      <args> s[0][5] d[0][5] s[0][6] </args>
      <args> s[0][6] d[0][6] s[0][7] </args>
      <args> s[0][7] d[0][7] s[0][8] </args>
      <args> s[0][8] d[0][8] s[0][9] </args>
      <args> s[1][0] d[1][0] s[1][1] </args>
      <args> s[1][1] d[1][1] s[1][2] </args>
      <args> s[1][2] d[1][2] s[1][3] </args>
      <args> s[1][3] d[1][3] s[1][4] </args>
      <args> s[1][4] d[1][4] s[1][5] </args>
      <args> s[1][5] d[1][5] s[1][6] </args>
      <args> s[1][6] d[1][6] s[1][7] </args>
      <args> s[1][7] d[1][7] s[1][8] </args>
      <args> s[1][8] d[1][8] s[1][9] </args>
      <args> s[2][0] d[2][0] s[2][1] </args>
      <args> s[2][1] d[2][1] s[2][2] </args>
      <args> s[2][2] d[2][2] s[2][3] </args>
      <args> s[2][3] d[2][3] s[2][4] </args>
      <args> s[2][4] d[2][4] s[2][5] </args>
      <args> s[2][5] d[2][5] s[2][6] </args>
      <args> s[2][6] d[2][6] s[2][7] </args>
      <args> s[2][7] d[2][7] s[2][8] </args>
      <args> s[2][8] d[2][8] s[2][9] </args>
      <args> s[3][0] d[3][0] s[3][1] </args>
      <args> s[3][1] d[3][1] s[3][2] </args>
      <args> s[3][2] d[3][2] s[3][3] </args>
      <args> s[3][3] d[3][3] s[3][4] </args>
      <args> s[3][4] d[3][4] s[3][5] </args>
      <args> s[3][5] d[3][5] s[3][6] </args>
      <args> s[3][6] d[3][6] s[3][7] </args>
      <args> s[3][7] d[3][7] s[3][8] </args>
      <args> s[3][8] d[3][8] s[3][9] </args>
      <args> s[4][0] d[4][0] s[4][1] </args>
      <args> s[4][1] d[4][1] s[4][2] </args>
      <args> s[4][2] d[4][2] s[4][3] </args>
      <args> s[4][3] d[4][3] s[4][4] </args>
      <args> s[4][4] d[4][4] s[4][5] </args>
      <args> s[4][5] d[4][5] s[4][6] </args>
      <args> s[4][6] d[4][6] s[4][7] </args>
      <args> s[4][7] d[4][7] s[4][8] </args>
      <args> s[4][8] d[4][8] s[4][9] </args>
      <args> s[5][0] d[5][0] s[5][1] </args>
      <args> s[5][1] d[5][1] s[5][2] </args>
      <args> s[5][2] d[5][2] s[5][3] </args>
      <args> s[5][3] d[5][3] s[5][4] </args>
      <args> s[5][4] d[5][4] s[5][5] </args>
      <args> s[5][5] d[5][5] s[5][6] </args>
      <args> s[5][6] d[5][6] s[5][7] </args>
      <args> s[5][7] d[5][7] s[5][8] </args>
      <args> s[5][8] d[5][8] s[5][9] </args>
      <args> s[6][0] d[6][0] s[6][1] </args>
      <args> s[6][1] d[6][1] s[6][2] </args>
      <args> s[6][2] d[6][2] s[6][3] </args>
      <args> s[6][3] d[6][3] s[6][4] </args>
      <args> s[6][4] d[6][4] s[6][5] </args>
      <args> s[6][5] d[6][5] s[6][6] </args>
      <args> s[6][6] d[6][6] s[6][7] </args>
      <args> s[6][7] d[6][7] s[6][8] </args>
      <args> s[6][8] d[6][8] s[6][9] </args>
      <args> s[7][0] d[7][0] s[7][1] </args>
      <args> s[7][1] d[7][1] s[7][2] </args>
      <args> s[7][2] d[7][2] s[7][3] </args>
      <args> s[7][3] d[7][3] s[7][4] </args>
      <args> s[7][4] d[7][4] s[7][5] </args>
      <args> s[7][5] d[7][5] s[7][6] </args>
      <args> s[7][6] d[7][6] s[7][7] </args>
      <args> s[7][7] d[7][7] s[7][8] </args>
      <args> s[7][8] d[7][8] s[7][9] </args>
      <args> s[8][0] d[8][0] s[8][1] </args>
      <args> s[8][1] d[8][1] s[8][2] </args>
      <args> s[8][2] d[8][2] s[8][3] </args>
      <args> s[8][3] d[8][3] s[8][4] </args>
      <args> s[8][4] d[8][4] s[8][5] </args>
      <args> s[8][5] d[8][5] s[8][6] </args>
      <args> s[8][6] d[8][6] s[8][7] </args>
      <args> s[8][7] d[8][7] s[8][8] </args>
      <args> s[8][8] d[8][8] s[8][9] </args>
      <args> s[9][0] d[9][0] s[9][1] </args>
      <args> s[9][1] d[9][1] s[9][2] </args>
      <args> s[9][2] d[9][2] s[9][3] </args>
      <args> s[9][3] d[9][3] s[9][4] </args>
      <args> s[9][4] d[9][4] s[9][5] </args>
      <args> s[9][5] d[9][5] s[9][6] </args>
      <args> s[9][6] d[9][6] s[9][7] </args>
      <args> s[9][7] d[9][7] s[9][8] </args>
      <args> s[9][8] d[9][8] s[9][9] </args>
    </group>
    <block class="channeling">
      <group>
        <element>
          <list> sd[0][] </list>
          <index> %0 </index>
          <value> %1 </value>
        </element>
        <args> w[0][0] s[0][0] </args>
        <args> w[0][1] s[0][1] </args>
        <args> w[0][2] s[0][2] </args>
        <args> w[0][3] s[0][3] </args>
        <args> w[0][4] s[0][4] </args>
        <args> w[0][5] s[0][5] </args>
        <args> w[0][6] s[0][6] </args>
        <args> w[0][7] s[0][7] </args>
        <args> w[0][8] s[0][8] </args>
        <args> w[0][9] s[0][9] </args>
      </group>
      <group>
        <element>
          <list> sd[1][] </list>
          <index> %0 </index>
          <value> %1 </value>
        </element>
        <args> w[1][0] s[1][0] </args>
        <args> w[1][1] s[1][1] </args>
        <args> w[1][2] s[1][2] </args>
        <args> w[1][3] s[1][3] </args>
        <args> w[1][4] s[1][4] </args>
        <args> w[1][5] s[1][5] </args>
        <args> w[1][6] s[1][6] </args>
        <args> w[1][7] s[1][7] </args>
        <args> w[1][8] s[1][8] </args>
        <args> w[1][9] s[1][9] </args>
      </group>
      <group>
        <element>
          <list> sd[2][] </list>
          <index> %0 </index>
          <value> %1 </value>
        </element>
        <args> w[2][0] s[2][0] </args>
        <args> w[2][1] s[2][1] </args>
        <args> w[2][2] s[2][2] </args>
        <args> w[2][3] s[2][3] </args>
        <args> w[2][4] s[2][4] </args>
        <args> w[2][5] s[2][5] </args>
        <args> w[2][6] s[2][6] </args>
        <args> w[2][7] s[2][7] </args>
        <args> w[2][8] s[2][8] </args>
        <args> w[2][9] s[2][9] </args>
      </group>
      <group>
        <element>
          <list> sd[3][] </list>
          <index> %0 </index>
          <value> %1 </value>
        </element>
        <args> w[3][0] s[3][0] </args>
        <args> w[3][1] s[3][1] </args>
        <args> w[3][2] s[3][2] </args>
        <args> w[3][3] s[3][3] </args>
        <args> w[3][4] s[3][4] </args>
        <args> w[3][5] s[3][5] </args>
        <args> w[3][6] s[3][6] </args>
        <args> w[3][7] s[3][7] </args>
        <args> w[3][8] s[3][8] </args>
        <args> w[3][9] s[3][9] </args>
      </group>
      <group>
        <element>
          <list> sd[4][] </list>
          <index> %0 </index>
          <value> %1 </value>
        </element>
        <args> w[4][0] s[4][0] </args>
        <args> w[4][1] s[4][1] </args>
        <args> w[4][2] s[4][2] </args>
        <args> w[4][3] s[4][3] </args>
        <args> w[4][4] s[4][4] </args>
        <args> w[4][5] s[4][5] </args>
        <args> w[4][6] s[4][6] </args>
        <args> w[4][7] s[4][7] </args>
        <args> w[4][8] s[4][8] </args>
        <args> w[4][9] s[4][9] </args>
      </group>
      <group>
        <element>
          <list> sd[5][] </list>
          <index> %0 </index>
          <value> %1 </value>
        </element>
        <args> w[5][0] s[5][0] </args>
        <args> w[5][1] s[5][1] </args>
        <args> w[5][2] s[5][2] </args>
        <args> w[5][3] s[5][3] </args>
        <args> w[5][4] s[5][4] </args>
        <args> w[5][5] s[5][5] </args>
        <args> w[5][6] s[5][6] </args>
        <args> w[5][7] s[5][7] </args>
        <args> w[5][8] s[5][8] </args>
        <args> w[5][9] s[5][9] </args>
      </group>
      <group>
        <element>
          <list> sd[6][] </list>
          <index> %0 </index>
          <value> %1 </value>
        </element>
        <args> w[6][0] s[6][0] </args>
        <args> w[6][1] s[6][1] </args>
        <args> w[6][2] s[6][2] </args>
        <args> w[6][3] s[6][3] </args>
        <args> w[6][4] s[6][4] </args>
        <args> w[6][5] s[6][5] </args>
        <args> w[6][6] s[6][6] </args>
        <args> w[6][7] s[6][7] </args>
        <args> w[6][8] s[6][8] </args>
        <args> w[6][9] s[6][9] </args>
      </group>
      <group>
        <element>
          <list> sd[7][] </list>
          <index> %0 </index>
          <value> %1 </value>
        </element>
        <args> w[7][0] s[7][0] </args>
        <args> w[7][1] s[7][1] </args>
        <args> w[7][2] s[7][2] </args>
        <args> w[7][3] s[7][3] </args>
        <args> w[7][4] s[7][4] </args>
        <args> w[7][5] s[7][5] </args>
        <args> w[7][6] s[7][6] </args>
        <args> w[7][7] s[7][7] </args>
        <args> w[7][8] s[7][8] </args>
        <args> w[7][9] s[7][9] </args>
      </group>
      <group>
        <element>
          <list> sd[8][] </list>
          <index> %0 </index>
          <value> %1 </value>
        </element>
        <args> w[8][0] s[8][0] </args>
        <args> w[8][1] s[8][1] </args>
        <args> w[8][2] s[8][2] </args>
        <args> w[8][3] s[8][3] </args>
        <args> w[8][4] s[8][4] </args>
        <args> w[8][5] s[8][5] </args>
        <args> w[8][6] s[8][6] </args>
        <args> w[8][7] s[8][7] </args>
        <args> w[8][8] s[8][8] </args>
        <args> w[8][9] s[8][9] </args>
      </group>
      <group>
        <element>
          <list> sd[9][] </list>
          <index> %0 </index>
          <value> %1 </value>
        </element>
        <args> w[9][0] s[9][0] </args>
        <args> w[9][1] s[9][1] </args>
        <args> w[9][2] s[9][2] </args>
        <args> w[9][3] s[9][3] </args>
        <args> w[9][4] s[9][4] </args>
        <args> w[9][5] s[9][5] </args>
        <args> w[9][6] s[9][6] </args>
        <args> w[9][7] s[9][7] </args>
        <args> w[9][8] s[9][8] </args>
        <args> w[9][9] s[9][9] </args>
      </group>
    </block>
    <block>
      <noOverlap>
        <origins> sd[][0] </origins>
        <lengths> 48 86 24 31 56 11 53 49 38 31 </lengths>
      </noOverlap>
      <noOverlap>
        <origins> sd[][1] </origins>
        <lengths> 2 29 87 89 29 97 44 86 28 50 </lengths>
      </noOverlap>
      <noOverlap>
        <origins> sd[][2] </origins>
        <lengths> 96 96 70 62 72 62 44 55 39 41 </lengths>
      </noOverlap>
      <noOverlap>
        <origins> sd[][3] </origins>
        <lengths> 67 16 6 67 20 46 93 93 97 84 </lengths>
      </noOverlap>
      <noOverlap>
        <origins> sd[][4] </origins>
        <lengths> 68 60 65 37 46 83 40 80 53 82 </lengths>
      </noOverlap>
      <noOverlap>
        <origins> sd[][5] </origins>
        <lengths> 47 57 86 69 12 55 33 29 94 83 </lengths>
      </noOverlap>
      <noOverlap>
        <origins> sd[][6] </origins>
        <lengths> 52 22 96 66 52 67 42 97 38 73 </lengths>
      </noOverlap>
      <noOverlap>
        <origins> sd[][7] </origins>
        <lengths> 83 12 64 91 46 37 85 67 18 34 </lengths>
      </noOverlap>
      <noOverlap>
        <origins> sd[][8] </origins>
        <lengths> 69 92 38 71 8 86 95 3 6 95 </lengths>
      </noOverlap>
      <noOverlap>
        <origins> sd[][9] </origins>
        <lengths> 51 26 90 17 12 60 25 18 72 34 </lengths>
      </noOverlap>
    </block>
    <group class="redundantConstraints">
      <intension> ge(%0,%1) </intension>
      <args> e[0] 583 </args>
      <args> e[1] 496 </args>
      <args> e[2] 626 </args>
      <args> e[3] 600 </args>
      <args> e[4] 353 </args>
      <args> e[5] 604 </args>
      <args> e[6] 554 </args>
      <args> e[7] 577 </args>
      <args> e[8] 483 </args>
      <args> e[9] 607 </args>
    </group>
  </constraints>
  <objectives>
    <minimize type="maximum"> e[] </minimize>
  </objectives>
</instance>
